(set-info :origin "driver benchmark extracted from Microsoft SDV")
(set-logic HORN)
(declare-fun Proc27 (Int Int Int Bool Int) Bool)
(declare-fun Proc34 (Int Int Int Bool Int) Bool)
(declare-fun Proc33 (Int Int Int Bool Int) Bool)
(declare-fun Proc10 (Int Int Int Bool Int Int Int Int) Bool)
(declare-fun Proc38 (Int Int Int Bool Int Int) Bool)
(declare-fun Proc1 (Int Int Int Bool Int) Bool)
(declare-fun Proc12 (Int Int Int Bool Int Int Int Int Int) Bool)
(declare-fun Proc6 (Int Int Int Bool Int) Bool)
(declare-fun Proc21 (Int Int Int Bool Int Int) Bool)
(declare-fun Proc13 (Int Int Int Bool Int Int Int Int) Bool)
(declare-fun Proc8 (Int Int Int Bool Int Int) Bool)
(declare-fun Proc43 (Int Int Int Bool) Bool)
(declare-fun Proc22 (Int Int Int Bool Int) Bool)
(declare-fun Proc23 (Int Int Int Bool Int Int) Bool)
(declare-fun Proc30 (Int Int Int Bool Int) Bool)
(declare-fun Proc17 (Int Int Int Bool Int Int Int) Bool)
(declare-fun Proc39 (Int Int Int Bool Int) Bool)
(declare-fun Proc32 (Int Int Int Bool Int) Bool)
(declare-fun Proc25 (Int Int Int Bool Int) Bool)
(declare-fun Proc4 (Int Int Int Bool Int Int Int) Bool)
(declare-fun Proc29 (Int Int Int Bool Int) Bool)
(declare-fun Proc44 (Int Int Int Bool Int Bool Int Int Int) Bool)
(declare-fun Proc20 (Int Int Int Bool) Bool)
(declare-fun Proc16 (Int Int Int Bool Int) Bool)
(declare-fun Proc3 (Int Int Int Bool Int) Bool)
(declare-fun Proc15 (Int Int Int Bool Int Int Int) Bool)
(declare-fun Proc36 (Int Int Int Bool Int) Bool)
(declare-fun Proc37 (Int Int Int Bool Int) Bool)
(declare-fun Proc11 (Int Int Int Bool Int Int Int Int) Bool)
(declare-fun Proc31 (Int Int Int Bool Int) Bool)
(declare-fun Proc35 (Int Int Int Bool Int) Bool)
(declare-fun Proc14 (Int Int Int Bool Int Int) Bool)
(declare-fun Proc26 (Int Int Int Bool Int) Bool)
(declare-fun Proc18 (Int Int Int Bool) Bool)
(declare-fun Proc9 (Int Int Int Bool Int Int Int Int) Bool)
(declare-fun Proc40 (Int Int Int Bool) Bool)
(declare-fun Proc19 (Int Int Int Bool) Bool)
(declare-fun Proc41 (Int Int Int Bool Int Int Int Int) Bool)
(declare-fun Proc28 (Int Int Int Bool Int) Bool)
(declare-fun Proc42 (Int Int Int Bool Int Int Int Int Int) Bool)
(declare-fun Proc2 (Int Int Int Bool Int Int) Bool)
(declare-fun Proc0 (Int Int Int Bool Int Int) Bool)
(declare-fun Proc7 (Int Int Int Bool Int Int Int Int) Bool)
(declare-fun Proc24 (Int Int Int Bool Int Int Int Bool Int) Bool)
(declare-fun Proc5 (Int Int Int Bool Int Int Int Int) Bool)
(assert (forall ((A Int)
         (B Int)
         (C Int)
         (D Int)
         (E Int)
         (F Int)
         (G Int)
         (H Int)
         (I Int)
         (J Int)
         (K Int)
         (L Int)
         (M Int)
         (N Int)
         (O Int)
         (P Int)
         (Q Int)
         (R Int)
         (S Bool))
  (let ((a!1 (not (and (not (= R 0)) (Proc0 Q P O S N M))))
        (a!2 (not (and (not (= R 0)) (Proc1 Q P O S L))))
        (a!3 (not (and (not (= K 0)) (Proc2 Q P O S J I))))
        (a!4 (not (and (not (= R 0)) (Proc1 Q P O S H))))
        (a!6 (not (and (not (= R 0)) (Proc4 Q P O S E D C)))))
  (let ((a!5 (or (= M 0)
                 (= R 0)
                 a!2
                 (= K 0)
                 a!3
                 a!4
                 (not (Proc3 Q P O S R))
                 (not (= G (- 1073741802)))
                 (not (= F G))))
        (a!7 (or (= K 0)
                 a!3
                 (= R 0)
                 a!4
                 (not (Proc3 Q P O S R))
                 (not (= G (- 1073741802)))
                 (not (= F G))))
        (a!8 (or (= R 0)
                 (= K 0)
                 a!3
                 a!4
                 (not (Proc3 Q P O S R))
                 (not (= G (- 1073741802)))
                 (not (= F G)))))
  (let ((a!9 (and a!5 (or (not (= M 0)) (= R 0) a!6 (= B 0) (and a!7 a!8)))))
    (=> (not (or (not S) (= R 0) a!1 a!9)) (Proc5 Q P O S A R K F)))))))
(assert (forall ((A Int)
         (B Int)
         (C Int)
         (D Int)
         (E Int)
         (F Int)
         (G Int)
         (H Int)
         (I Int)
         (J Int)
         (K Int)
         (L Int)
         (M Int)
         (N Int)
         (O Int)
         (S Bool))
  (let ((a!1 (not (and (not (= I 0)) (Proc7 M L K S H J G F))))
        (a!3 (or (= J 0)
                 (not (Proc8 M L K S J 0))
                 (not (= A (- 1073741808)))
                 (not (and (= E M) (= D A)))
                 (not (and (= C D) (= B E))))))
  (let ((a!2 (or (= O 0)
                 (not (Proc6 M L K S J))
                 (= I 0)
                 a!1
                 (not (and (= E F) (= D G)))
                 (not (and (= C D) (= B E))))))
    (=> (not (or (not S) (= O 0) (= N 0) (and a!2 a!3)))
        (Proc9 M L K S O J C B))))))
(assert (forall ((A Int)
         (B Int)
         (C Int)
         (D Int)
         (E Int)
         (F Int)
         (G Int)
         (H Int)
         (I Int)
         (S Bool))
  (let ((a!1 (or (= I 0)
                 (not (Proc10 H G F S I 1 0 E))
                 (not (= D (- 1073741802)))
                 (not (= C D))))
        (a!2 (or (not (= I 0)) (not (= D (- 1073741802))) (not (= C D)))))
    (=> (not (or (not S) (and a!1 a!2))) (Proc11 H G F S B A I C)))))
(assert (forall ((A Int) (B Int) (C Int) (D Int) (S Bool)) (=> S (Proc3 D C B S A))))
(assert (forall ((A Int)
         (B Int)
         (C Int)
         (D Int)
         (E Int)
         (F Int)
         (G Int)
         (H Int)
         (I Int)
         (J Int)
         (K Int)
         (L Int)
         (M Int)
         (N Int)
         (O Int)
         (P Int)
         (Q Int)
         (R Int)
         (S Bool)
         (T Int)
         (U Int)
         (V Int))
  (let ((a!1 (and (not (<= T (+ 4 V))) (not (<= T U))))
        (a!2 (or (not (Proc12 T Q P S O R N V M)) (not (and (= L 259) (= K T)))))
        (a!4 (or (not (Proc12 T Q P S J R I V H)) (not (and (= L 259) (= K T)))))
        (a!6 (or (not (Proc12 T Q P S G R F V E)) (not (and (= L 259) (= K T)))))
        (a!8 (or (not (Proc12 T Q P S D R C V B)) (not (and (= L 259) (= K T))))))
  (let ((a!3 (and a!2 (not (and (= L 259) (= K T)))))
        (a!5 (and a!4 (not (and (= L 259) (= K T)))))
        (a!7 (and a!6 (not (and (= L 259) (= K T)))))
        (a!9 (and a!8 (not (and (= L 259) (= K T))))))
  (let ((a!10 (or (not S)
                  (not (= V U))
                  (not a!1)
                  (and (or (= R 0) a!3)
                       (or (= R 0) a!5)
                       (or (= R 0) a!7)
                       (or (= R 0) a!9)))))
    (=> (not a!10) (Proc13 U Q P S A R L K)))))))
(assert (forall ((A Int)
         (B Int)
         (C Int)
         (D Int)
         (E Int)
         (F Int)
         (G Int)
         (H Int)
         (S Bool))
  (let ((a!1 (not (or (not S) (not (= H G))))))
    (=> a!1 (Proc10 F E D S C B A H)))))
(assert (forall ((A Int)
         (B Int)
         (C Int)
         (D Int)
         (E Int)
         (F Int)
         (G Int)
         (H Int)
         (I Int)
         (S Bool))
  (let ((a!1 (and (not (<= G (+ 1 I))) (not (<= G H)))))
  (let ((a!2 (or (not S)
                 (not (= I H))
                 (not a!1)
                 (not (Proc14 G F E S I D))
                 (not (and (= C G) (= B D))))))
    (=> (not a!2) (Proc15 H F E S A C B))))))
(assert (forall ((A Int) (B Int) (C Int) (D Int) (E Int) (S Bool))
  (let ((a!1 (not (or (not S) (not (= E 1))))))
    (=> a!1 (Proc14 D C B S A E)))))
(assert (forall ((A Int) (B Int) (C Int) (D Int) (S Bool))
  (=> false (Proc16 D C B S A))))
(assert (forall ((A Int)
         (B Int)
         (C Int)
         (D Int)
         (E Int)
         (F Int)
         (G Int)
         (H Int)
         (I Int)
         (J Int)
         (K Int)
         (L Int)
         (S Bool))
  (let ((a!1 (or (not (= G 1))
                 (not (and (= F H) (= E G)))
                 (not (and (= D F) (= C E)))))
        (a!2 (or (= G 1)
                 (not (and (= F H) (= E G)))
                 (not (and (= D F) (= C E)))))
        (a!3 (and (not (<= A (+ 1 B))) (not (<= A K)))))
  (let ((a!4 (or (not (= L 0))
                 (not (= B K))
                 (not a!3)
                 (not (Proc16 A L J S B))
                 (not (and (= F A) (= E J)))
                 (not (and (= D F) (= C E))))))
  (let ((a!5 (and (or (= L 0) (not (Proc15 K L J S I H G)) (and a!1 a!2)) a!4)))
    (=> (not (or (not S) a!5)) (Proc17 K L J S I D C)))))))
(assert (forall ((A Int) (B Int) (C Int) (S Bool)) (=> S (Proc18 C B A S))))
(assert (forall ((A Int) (B Int) (C Int) (S Bool)) (=> S (Proc19 C B A S))))
(assert (forall ((A Int) (B Int) (C Int) (S Bool)) (=> S (Proc20 C B A S))))
(assert (forall ((A Int) (B Int) (C Int) (D Int) (E Int) (S Bool))
  (let ((a!1 (or (not S) (not (and (= E 0) (= D 0))))))
    (=> (not a!1) (Proc21 C B A S E D)))))
(assert (forall ((A Int)
         (B Int)
         (C Int)
         (D Int)
         (E Int)
         (F Int)
         (G Int)
         (H Int)
         (I Int)
         (J Int)
         (K Int)
         (L Int)
         (M Int)
         (N Int)
         (O Int)
         (S Bool)
         (W Bool)
         (X Bool)
         (Y Bool))
  (let ((a!1 (not (and (not (<= O 0)) (Proc22 O N M Y L))))
        (a!2 (not (and (= E G) (= D K) (= C H) (= W X) (= B I)))))
  (let ((a!3 (or (= H 0) (not (and (= G F) (not X))) a!2))
        (a!4 (or (not (and (= H 0) (= S Y))) (not (and (= G A) (= X S))) a!2)))
  (let ((a!5 (and (or (= H 1) (and a!3 a!4)) (or (not (= H 1)) (and a!3 a!4)))))
  (let ((a!6 (not (or (not Y)
                      a!1
                      (not (Proc21 L N M Y K J))
                      (not (Proc20 L K J Y))
                      (not (Proc19 L K J Y))
                      (not (Proc18 L K J Y))
                      (not (Proc23 L K J Y I H))
                      a!5))))
    (=> a!6 (Proc24 O N M Y E D C W B))))))))
(assert (forall ((A Int) (B Int) (C Int) (D Int) (S Bool))
  (let ((a!1 (not (or (not S) (not (= D 1))))))
    (=> a!1 (Proc25 C B A S D)))))
(assert (forall ((A Int) (B Int) (C Int) (D Int) (S Bool))
  (let ((a!1 (not (or (not S) (not (= D 0))))))
    (=> a!1 (Proc26 C B A S D)))))
(assert (forall ((A Int) (B Int) (C Int) (D Int) (S Bool))
  (let ((a!1 (not (or (not S) (not (= D 1))))))
    (=> a!1 (Proc27 C B A S D)))))
(assert (forall ((A Int) (B Int) (C Int) (D Int) (S Bool))
  (let ((a!1 (not (or (not S) (not (= D 1))))))
    (=> a!1 (Proc28 C B A S D)))))
(assert (forall ((A Int) (B Int) (C Int) (D Int) (S Bool))
  (let ((a!1 (not (or (not S) (not (= D 1))))))
    (=> a!1 (Proc29 C B A S D)))))
(assert (forall ((A Int) (B Int) (C Int) (D Int) (S Bool))
  (let ((a!1 (not (or (not S) (not (= D 1))))))
    (=> a!1 (Proc30 C B A S D)))))
(assert (forall ((A Int) (B Int) (C Int) (D Int) (S Bool))
  (let ((a!1 (not (or (not S) (not (= D 1))))))
    (=> a!1 (Proc31 C B A S D)))))
(assert (forall ((A Int) (B Int) (C Int) (D Int) (S Bool))
  (let ((a!1 (not (or (not S) (not (= D 1))))))
    (=> a!1 (Proc32 C B A S D)))))
(assert (forall ((A Int) (B Int) (C Int) (D Int) (S Bool))
  (let ((a!1 (not (or (not S) (not (= D 1))))))
    (=> a!1 (Proc33 C B A S D)))))
(assert (forall ((A Int) (B Int) (C Int) (D Int) (S Bool))
  (let ((a!1 (not (or (not S) (not (= D 1))))))
    (=> a!1 (Proc34 C B A S D)))))
(assert (forall ((A Int) (B Int) (C Int) (D Int) (S Bool))
  (let ((a!1 (not (or (not S) (not (= D 0))))))
    (=> a!1 (Proc35 C B A S D)))))
(assert (forall ((A Int) (B Int) (C Int) (D Int) (E Int) (S Bool))
  (let ((a!1 (or (not S) (not (= E (- 1073741823))) (not (= D E)))))
    (=> (not a!1) (Proc36 C B A S D)))))
(assert (forall ((A Int) (B Int) (C Int) (D Int) (S Bool)) (=> S (Proc1 D C B S A))))
(assert (forall ((A Int)
         (B Int)
         (C Int)
         (D Int)
         (E Int)
         (F Int)
         (G Int)
         (H Int)
         (I Int)
         (S Bool))
  (let ((a!1 (or (not S)
                 (not (Proc13 I H G S F E D C))
                 (not (and (= B D) (= A C))))))
    (=> (not a!1) (Proc7 I H G S F E B A)))))
(assert (forall ((A Int) (B Int) (C Int) (D Int) (E Int) (S Bool))
  (=> S (Proc8 E D C S B A))))
(assert (forall ((A Int) (B Int) (C Int) (D Int) (S Bool))
  (let ((a!1 (not (or (not S) (not (= D 1))))))
    (=> a!1 (Proc37 C B A S D)))))
(assert (forall ((A Int)
         (B Int)
         (C Int)
         (D Int)
         (E Int)
         (F Int)
         (G Int)
         (H Int)
         (I Int)
         (S Bool))
  (let ((a!1 (and (or (not (= I H)) (not (= G I)))
                  (or (not (= I F)) (not (= G I)))
                  (or (not (= I E)) (not (= G I))))))
    (=> (not (or (not S) a!1)) (Proc38 D C B S A G)))))
(assert (forall ((A Int) (B Int) (C Int) (D Int) (S Bool)) (=> S (Proc6 D C B S A))))
(assert (forall ((A Int)
         (B Int)
         (C Int)
         (D Int)
         (E Int)
         (F Int)
         (G Int)
         (H Int)
         (S Bool))
  (let ((a!1 (and (or (= G 0) (not (= F 1)) (not (= E F)) (not (= D E)))
                  (or (not (= G 0)) (not (= F 0)) (not (= E F)) (not (= D E))))))
  (let ((a!2 (and (or (<= H 536870911) a!1)
                  (or (not (<= H 536870911)) (not (= E 0)) (not (= D E))))))
  (let ((a!3 (and (or (<= 0 H) a!1) (or (not (<= 0 H)) a!2))))
    (=> (not (or (not S) a!3)) (Proc0 C B A S H D)))))))
(assert (forall ((A Int) (B Int) (C Int) (D Int) (E Int) (F Int) (S Bool))
  (let ((a!1 (not (or (not S) (not (= F E))))))
    (=> a!1 (Proc2 D C B S A F)))))
(assert (forall ((A Int) (B Int) (C Int) (D Int) (E Int) (F Int) (S Bool))
  (=> S (Proc4 F E D S C B A))))
(assert (forall ((A Int)
         (B Int)
         (C Int)
         (D Int)
         (E Int)
         (F Int)
         (G Int)
         (H Int)
         (I Int)
         (J Int)
         (K Int)
         (L Int)
         (M Int)
         (N Int)
         (O Int)
         (P Int)
         (Q Int)
         (R Int)
         (S Bool)
         (T Int)
         (U Int)
         (V Int))
  (let ((a!1 (not (Proc41 N T R S O V M L)))
        (a!2 (not (and (= I K) (= H M) (= G L)))))
  (let ((a!3 (or (not (and (= L 1) (= K J))) a!2)))
  (let ((a!4 (and a!3 (or (= L 1) (= V 0) (not (= K O)) a!2))))
  (let ((a!5 (or (= Q 0)
                 (not (Proc36 U T R S P))
                 (not (and (= O P) (= N U)))
                 a!1
                 a!4))
        (a!6 (or (= Q 0)
                 (not (Proc36 U T R S F))
                 (not (and (= O F) (= N U)))
                 a!1
                 a!4))
        (a!7 (or (= Q 0)
                 (not (Proc9 U T R S E V D C))
                 (not (and (= O D) (= N C)))
                 a!1
                 a!4))
        (a!8 (or (not (Proc36 U T R S B)) (not (and (= O B) (= N U))) a!1 a!4))
        (a!9 (or (not (Proc36 U T R S A)) (not (and (= O A) (= N U))) a!1 a!4)))
  (let ((a!10 (not (or (not S)
                       (= V 0)
                       (not (Proc39 U T R S V))
                       (= Q 0)
                       (not (Proc40 U T R S))
                       (and a!5 a!6 a!7 a!8 a!9)))))
    (=> a!10 (Proc42 U T R S E V I H G)))))))))
(assert (forall ((A Int)
         (B Int)
         (C Int)
         (D Int)
         (E Int)
         (F Int)
         (G Int)
         (H Int)
         (I Int)
         (J Int)
         (K Int)
         (L Int)
         (M Int)
         (S Bool))
  (let ((a!1 (not (and (not (= B 0)) (= G C))))
        (a!3 (not (and (not (= B 0)) (= H A)))))
  (let ((a!2 (and (or (not (= G H)) (not (= F G)))
                  (or (not (Proc11 M L K S E J D C)) a!1 (not (= F G))))))
  (let ((a!4 (and (or (not (= H 0)) (= I 0) a!2)
                  (or (not (Proc5 M L K S E J D A)) a!3 (= I 0) a!2))))
  (let ((a!5 (not (or (not S) (not (Proc38 M L K S J I)) (= I 0) a!4))))
    (=> a!5 (Proc12 M L K S E J D B F))))))))
(assert (forall ((A Int) (B Int) (C Int) (D Int) (S Bool))
  (=> (not (or (not S) (= D 0))) (Proc39 C B A S D))))
(assert (forall ((A Int)
         (B Int)
         (C Int)
         (D Int)
         (E Int)
         (F Int)
         (G Int)
         (H Int)
         (I Int)
         (J Int)
         (K Int)
         (L Int)
         (M Int)
         (N Int)
         (O Int)
         (P Int)
         (Q Int)
         (R Int)
         (S Bool)
         (T Int)
         (U Int)
         (V Int)
         (Z Int)
         (A1 Int)
         (B1 Int))
  (let ((a!1 (or (not (and (= I Z) (= H B1))) (not (and (= G H) (= F I)))))
        (a!2 (or (not (= A 1))
                 (not (and (= I A) (= H B)))
                 (not (and (= G H) (= F I)))))
        (a!3 (or (= A 1)
                 (not (and (= I A) (= H B)))
                 (not (and (= G H) (= F I)))))
        (a!4 (or (not (= V 0))
                 (not (and (= I Z) (= H B1)))
                 (not (and (= G H) (= F I))))))
  (let ((a!5 (and a!1
                  (or (= V 0)
                      (not (Proc43 B1 A1 Z S))
                      (not (Proc42 B1 A1 Z S E D C B A))
                      (and a!2 a!3))
                  a!4)))
  (let ((a!6 (not (or (not S)
                      (not (Proc27 B1 A1 Z S V))
                      (not (Proc34 B1 A1 Z S U))
                      (not (Proc28 B1 A1 Z S T))
                      (not (Proc33 B1 A1 Z S R))
                      (not (Proc26 B1 A1 Z S Q))
                      (not (Proc30 B1 A1 Z S P))
                      (not (Proc37 B1 A1 Z S O))
                      (not (Proc35 B1 A1 Z S N))
                      (not (Proc25 B1 A1 Z S M))
                      (not (Proc31 B1 A1 Z S L))
                      (not (Proc32 B1 A1 Z S K))
                      (not (Proc29 B1 A1 Z S J))
                      a!5))))
    (=> a!6 (Proc23 B1 A1 Z S G F)))))))
(assert (forall ((A Int) (B Int) (C Int) (S Bool)) (=> S (Proc40 C B A S))))
(assert (forall ((A Int)
         (B Int)
         (C Int)
         (D Int)
         (E Int)
         (F Int)
         (G Int)
         (H Int)
         (I Int)
         (J Int)
         (K Int)
         (S Bool))
  (let ((a!1 (and (not (<= I (+ 1 K))) (not (<= I J))))
        (a!2 (or (not (= E 1)) (not (and (= D F) (= C E)))))
        (a!3 (or (= E 1) (not (and (= D F) (= C E))))))
  (let ((a!4 (not (or (not S)
                      (not (= K J))
                      (not a!1)
                      (not (Proc17 I H G S K F E))
                      (and a!2 a!3)))))
    (=> a!4 (Proc41 J H G S B A D C))))))
(assert (forall ((A Int) (B Int) (C Int) (S Bool)) (=> S (Proc43 C B A S))))
(assert (forall ((A Int)
         (B Int)
         (C Int)
         (D Int)
         (E Int)
         (F Int)
         (G Int)
         (H Int)
         (I Int)
         (J Int)
         (K Int)
         (L Int)
         (M Int)
         (N Int)
         (O Int)
         (P Int)
         (Q Int)
         (R Int)
         (S Bool)
         (T Int)
         (U Int)
         (V Int)
         (Z Int)
         (A1 Int)
         (B1 Int)
         (C1 Int)
         (D1 Int)
         (E1 Int)
         (F1 Int)
         (G1 Int)
         (H1 Int)
         (I1 Int)
         (J1 Int)
         (K1 Int)
         (L1 Int)
         (M1 Int)
         (N1 Int)
         (O1 Int)
         (P1 Int)
         (Q1 Int)
         (R1 Int)
         (S1 Int)
         (T1 Int)
         (U1 Int)
         (V1 Int)
         (W1 Int)
         (X1 Int)
         (Y1 Int)
         (Z1 Int)
         (A2 Int)
         (B2 Int)
         (C2 Int)
         (D2 Int)
         (E2 Int)
         (F2 Int))
  (let ((a!1 (and (not (<= D2 (+ 4 F2))) (not (<= D2 E2))))
        (a!2 (and (= C2 D2)
                  (not (<= B2 (+ 332 C2)))
                  (not (<= B2 D2))
                  (= A2 B2)
                  (not (<= Z1 (+ 4 A2)))
                  (not (<= Z1 B2))
                  (= Y1 Z1)
                  (not (<= X1 (+ 536 Y1)))))
        (a!3 (and (not (<= X1 Z1))
                  (= W1 X1)
                  (not (<= V1 (+ 240 W1)))
                  (not (<= V1 X1))
                  (= U1 V1)
                  (not (<= T1 (+ 240 U1)))
                  (not (<= T1 V1))
                  (= S1 T1)
                  (not (<= R1 (+ 536 S1)))
                  (not (<= R1 T1))
                  (= Q1 R1)
                  (not (<= P1 (+ 240 Q1)))
                  (not (<= P1 R1))
                  (= O1 P1)
                  (not (<= N1 (+ 4 O1)))
                  (not (<= N1 P1))
                  (= M1 N1)
                  (not (<= L1 (+ 536 M1)))
                  (not (<= L1 N1))
                  (= K1 L1)
                  (not (<= J1 (+ 332 K1)))
                  (not (<= J1 L1))
                  (= I1 J1)
                  (not (<= H1 (+ 240 I1)))
                  (not (<= H1 J1))
                  (= G1 H1)
                  (not (<= F1 (+ 240 G1)))
                  (not (<= F1 H1))
                  (= E1 F1)
                  (not (<= D1 (+ 332 E1)))
                  (not (<= D1 F1))
                  (= C1 D1)
                  (not (<= B1 (+ 4 C1)))
                  (not (<= B1 D1))
                  (= A1 B1)
                  (not (<= Z (+ 536 A1)))
                  (not (<= Z B1))
                  (= V Z)
                  (not (<= U (+ 240 V)))
                  (not (<= U Z))
                  (= T U)
                  (not (<= R (+ 240 T)))
                  (not (<= R U))
                  (= Q R)
                  (not (<= P (+ 240 Q)))
                  (not (<= P R))
                  (= O P)
                  (not (<= N (+ 240 O)))
                  (not (<= N P))
                  (= M N)
                  (not (<= L (+ 240 M)))
                  (not (<= L N))
                  (= K L)
                  (not (<= J (+ 40 K)))
                  (not (<= J L))
                  (= I J)
                  (not (<= H (+ 332 I)))
                  (not (<= H J))
                  (= G H)
                  (not (<= F (+ 4 G)))
                  (not (<= F H))
                  (= E F)
                  (not (<= D (+ 40 E)))
                  (not (<= D F)))))
  (let ((a!4 (not (or (not S)
                      (not (= F2 E2))
                      (not a!1)
                      (not a!2)
                      (not a!3)
                      (not (= C D))))))
    (=> a!4 (Proc22 E2 B A S C))))))
(assert (forall ((A Int)
         (B Int)
         (C Int)
         (D Int)
         (E Int)
         (F Int)
         (G Int)
         (H Int)
         (I Int)
         (J Int)
         (K Int)
         (S Bool)
         (W Bool)
         (X Bool))
  (let ((a!1 (or (not X) (not (and (Proc24 K J I true H G F W E) (not W))))))
    (=> (not a!1) (Proc44 K J I X D S C B A)))))
(assert (let ((a!1 (exists ((V0 Int)
                    (V1 Int)
                    (V2 Int)
                    (V3 Bool)
                    (V4 Int)
                    (V5 Bool)
                    (V6 Int)
                    (V7 Int)
                    (V8 Int))
             (not (=> (and (Proc44 V0 V1 V2 V3 V4 V5 V6 V7 V8) (not false))
                      false)))))
  (not a!1)))

(check-sat)
